
Gurobi 12.0.1 (win64, C++) logging started Thu Apr 17 14:32:33 2025

Set parameter TokenServer to value "141.76.38.119"
Set parameter Threads to value 8
Set parameter LazyConstraints to value 1
Set parameter PreCrush to value 1
Set parameter Seed to value 0
Set parameter Cuts to value -1
Set parameter TimeLimit to value 28800
Set parameter NumericFocus to value 0
Set parameter SolutionLimit to value 10000
Gurobi Optimizer version 12.0.1 build v12.0.1rc0 (win64 - Windows Server 2022.0 (20348.2))

CPU model: AMD EPYC 7513 32-Core Processor, instruction set [SSE2|AVX|AVX2]
Thread count: 16 physical cores, 16 logical processors, using up to 8 threads

Non-default parameters:
SolutionLimit  10000
TimeLimit  28800
PreCrush  1
Threads  8
LazyConstraints  1

Optimize a model with 255 rows, 484 columns and 1388 nonzeros
Model fingerprint: 0x7fa55a17
Variable types: 0 continuous, 484 integer (484 binary)
Coefficient statistics:
  Matrix range     [1e+00, 1e+00]
  Objective range  [3e+00, 8e+01]
  Bounds range     [1e+00, 1e+00]
  RHS range        [1e+00, 6e+00]

User MIP start produced solution with objective 608.713 (0.00s)
Loaded user MIP start with objective 608.713

Presolve removed 6 rows and 30 columns
Presolve time: 0.00s
Presolved: 249 rows, 454 columns, 1300 nonzeros
Variable types: 0 continuous, 454 integer (454 binary)

Root relaxation: objective 3.576230e+02, 79 iterations, 0.00 seconds (0.00 work units)

    Nodes    |    Current Node    |     Objective Bounds      |     Work
 Expl Unexpl |  Obj  Depth IntInf | Incumbent    BestBd   Gap | It/Node Time

     0     0  357.62304    0   14  608.71310  357.62304  41.2%     -    0s
     0     0  388.53078    0    -  608.71310  388.53078  36.2%     -    0s
     0     0  413.91655    0   27  608.71310  413.91655  32.0%     -    0s
     0     0  424.33003    0   14  608.71310  424.33003  30.3%     -    0s
     0     0  460.52794    0   24  608.71310  460.52794  24.3%     -    0s
     0     0  466.65419    0   23  608.71310  466.65419  23.3%     -    0s
     0     0  469.97985    0   35  608.71310  469.97985  22.8%     -    0s
     0     0  471.69328    0   50  608.71310  471.69328  22.5%     -    0s
     0     0  471.69328    0   37  608.71310  471.69328  22.5%     -    0s
     0     2  471.69328    0   37  608.71310  471.69328  22.5%     -    0s
*  100    93              10     498.3157868  489.34690  1.80%  50.3    4s
H  101    93                     498.1572394  489.34690  1.77%  49.8    4s
   156    80     cutoff   11       498.15724  490.38812  1.56%  39.1    5s

Cutting planes:
  Lazy constraints: 2335

Explored 496 nodes (14433 simplex iterations) in 8.88 seconds (1.39 work units)
Thread count was 8 (of 16 available processors)

Solution count 3: 498.157 498.316 608.713 

Optimal solution found (tolerance 1.00e-04)
Best objective 4.981572394012e+02, best bound 4.981572394012e+02, gap 0.0000%

User-callback calls 1344, time in user-callback 7.34 sec
### START EXACT APPROACH ###
ProblemVariant: 1
### START PREPROCESSING ###
## Start infeasible path procedure ## 
Deleted arcs: 8
Infeasible tail paths: 1
Infeasible 2-node combinations: 4
## Start extended infeasible path procedure ##
Deleted arcs: 8
Infeasible tail paths: 1
Infeasible 2-node combinations: 4
## Start start solution procedure ##
Start solution with 6 Vehicles and total costs 608.713 in 1.79604 s.
### END PREPROCESSING ###
Route 0 0-1-2-5-0 : weight util 0.975000 | volume util 0.349000 | feasible with packing heuristic | feasible with CP model
Route 1 0-10-7-9-12-0 : weight util 0.800000 | volume util 0.406089 | infeasible with packing heuristic | feasible with CP model
Route 2 0-11-4-3-6-8-0 : weight util 0.975000 | volume util 0.485889 | infeasible with packing heuristic | feasible with CP model
Route 3 0-13-19-0 : weight util 0.950000 | volume util 0.250489 | feasible with packing heuristic | feasible with CP model
Route 4 0-15-18-20-14-0 : weight util 0.975000 | volume util 0.536778 | feasible with packing heuristic | feasible with CP model
Route 5 0-17-21-16-0 : weight util 0.950000 | volume util 0.205356 | feasible with packing heuristic | feasible with CP model
